(set-logic HORN)
(declare-datatypes ((List 1)) ((par (k!00)((nil) (insert (head k!00) (tail (List k!00)))))))
(declare-fun sum ((List Int) Int) Bool)
(define-funs-rec ( ( sum ((x!1 (List Int))) Int))
                 ( (ite (= x!1 nil) 0 (+ (head x!1) ((_ sum 0) (tail x!1))))))
(assert (forall ((dummy Int)) (=> true (sum nil 0))))
(assert (forall ((n Int) (x Int) (xs (List Int)))
  (=> (sum xs n) (sum (insert x xs) (+ x n)))))
(assert (forall ((xs (List Int)) (n Int) (m Int))
  (=> (and (= ((_ sum 0) xs) m) (= ((_ sum 0) xs) n) (sum xs m) (sum xs n))
      (= m n))))
(check-sat)